#######################################################################
#
# This file contains crystal structure data downloaded from the
# Cambridge Structural Database (CSD) hosted by the Cambridge 
# Crystallographic Data Centre (CCDC).
#
# Full information about CCDC data access policies and citation
# guidelines are available at http://www.ccdc.cam.ac.uk/access/V1
#
# Audit and citation data items may have been added by the CCDC.
# Please retain this information to preserve the provenance of
# this file and to allow appropriate attribution of the data.
#
#######################################################################

data_SIFSIX-2-Cu-i_C2D2_200K_publ
_audit_block_doi                 10.5517/ccdc.csd.cc1ldj8s
_database_code_depnum_ccdc_archive 'CCDC 1471795'
loop_
_citation_id
_citation_doi
_citation_year
1 10.1126/science.aaf.2458 2016
_audit_update_record
;
2016-04-01 deposited with the CCDC.	2021-04-12 downloaded from the CCDC.
;

_audit_creation_method           'from EXP file using GSAS2CIF'
_audit_creation_date             2016-03-18T10:11

_cell_length_a                   13.7150(4)
_cell_length_b                   13.715
_cell_length_c                   7.95226(32)
_cell_angle_alpha                90.0
_cell_angle_beta                 90.0
_cell_angle_gamma                90.0
_cell_volume                     1495.83(10)
_cell_measurement_temperature    200
_symmetry_cell_setting           tetragonal
_symmetry_space_group_name_H-M   'I 4/m m m'
loop_
_symmetry_equiv_pos_site_id
_symmetry_equiv_pos_as_xyz
1 +x,+y,+z
2 -y,+x,+z
3 -x,-y,+z
4 +y,-x,+z
5 -x,+y,+z
6 -y,-x,+z
7 +x,-y,+z
8 +y,+x,+z
-1 -x,-y,-z
-2 +y,-x,-z
-3 +x,+y,-z
-4 -y,+x,-z
-5 +x,-y,-z
-6 +y,+x,-z
-7 -x,+y,-z
-8 -y,-x,-z
101 +x+1/2,+y+1/2,+z+1/2
102 -y+1/2,+x+1/2,+z+1/2
103 -x+1/2,-y+1/2,+z+1/2
104 +y+1/2,-x+1/2,+z+1/2
105 -x+1/2,+y+1/2,+z+1/2
106 -y+1/2,-x+1/2,+z+1/2
107 +x+1/2,-y+1/2,+z+1/2
108 +y+1/2,+x+1/2,+z+1/2
-101 -x+1/2,-y+1/2,-z+1/2
-102 +y+1/2,-x+1/2,-z+1/2
-103 +x+1/2,+y+1/2,-z+1/2
-104 -y+1/2,+x+1/2,-z+1/2
-105 +x+1/2,-y+1/2,-z+1/2
-106 +y+1/2,+x+1/2,-z+1/2
-107 -x+1/2,+y+1/2,-z+1/2
-108 -y+1/2,-x+1/2,-z+1/2

loop_
_atom_site_type_symbol
_atom_site_label
_atom_site_fract_x
_atom_site_fract_y
_atom_site_fract_z
_atom_site_occupancy
_atom_site_thermal_displace_type
_atom_site_U_iso_or_equiv
_atom_site_symmetry_multiplicity
C C1 0.0227(4) 0.19917(25) 0.1404(4) 0.5 Uiso 0.01397 32
C C2 0.02506(28) 0.30028(25) 0.1469(4) 0.5 Uiso 0.01397 32
H H3 0.0353(10) 0.1575(9) 0.2551(10) 0.5 Uiso 0.05347 32
H H4 0.0366(9) 0.3363(10) 0.2674(10) 0.5 Uiso 0.05347 32
C C5 0.0 0.6479(4) 0.0 1.0 Uiso 0.02974 8
C C6 0.0 0.5447(4) 0.0 1.0 Uiso 0.02974 8
N N7 0.0 0.14897(34) 0.0 1.0 Uiso 0.02397 8
Cu Cu8 0.0 0.0 0.0 1.0 Uiso 0.02811 2
Si Si9 0.0 0.0 0.5 1.0 Uiso 0.01128 2
F F10 0.0 0.0 0.2830(13) 1.0 Uiso 0.02649 4
F F11 0.0878(4) 0.0878(4) 0.5 1.0 Uiso 0.02934 8
H H 0.1901(8) 0.1901(8) 0.4012(17) 0.422(5) Uiso 0.09644 16
C C 0.2293(6) 0.2293(6) 0.3024(12) 0.422(5) Uiso 0.05271 16

_chemical_formula_sum            'C27.38 H16 Cu H3.38 F6 N4 Si'
_chemical_formula_weight         613.43
_cell_formula_units_Z            2

loop_
_geom_bond_atom_site_label_1
_geom_bond_atom_site_label_2
_geom_bond_distance
_geom_bond_site_symmetry_1
_geom_bond_site_symmetry_2
_geom_bond_publ_flag

C1 C2 1.3880(20) . 1_555 N
C1 H3 1.0893(21) . 1_555 N
C1 N7 1.3484(20) . 1_555 N
C2 C1 1.3880(20) . 1_555 N
C2 H4 1.0896(21) . 1_555 N
C2 C5 1.4101(20) . 3_565 N
C5 C2 1.4101(20) . 3_565 N
C5 C2 1.4101(20) . 7_565 N
C5 C2 1.4101(20) . -1_565 N
C5 C2 1.4101(20) . -5_565 N
C5 C6 1.415(8) . 1_555 N
C6 C6 1.225(10) . 3_565 N
N7 C1 1.3484(20) . 1_555 N
N7 C1 1.3484(20) . 5_555 N
N7 C1 1.3484(20) . -3_555 N
N7 C1 1.3484(20) . -7_555 N
N7 Cu8 2.043(5) . 1_555 N
Cu8 N7 2.043(5) . 1_555 N
Cu8 N7 2.043(5) . 2_555 N
Cu8 N7 2.043(5) . 3_555 N
Cu8 N7 2.043(5) . 4_555 N
Cu8 F10 2.250(10) . 1_555 N
Cu8 F10 2.250(10) . -1_555 N
Si9 F10 1.726(10) . 1_555 N
Si9 F10 1.726(10) . -1_556 N
Si9 F11 1.702(7) . 1_555 N
Si9 F11 1.702(7) . 2_555 N
Si9 F11 1.702(7) . 3_555 N
Si9 F11 1.702(7) . 4_555 N
F10 Cu8 2.250(10) . 1_555 N
F10 Si9 1.726(10) . 1_555 N
F11 Si9 1.702(7) . 1_555 N
H C 1.0818(9) . 1_555 N
C H 1.0818(9) . 1_555 N
C C 1.157(9) . -101_555 N

loop_
_geom_angle_atom_site_label_1
_geom_angle_atom_site_label_2
_geom_angle_atom_site_label_3
_geom_angle
_geom_angle_site_symmetry_1
_geom_angle_site_symmetry_2
_geom_angle_site_symmetry_3
_geom_angle_publ_flag
C1 C1 C2 91.33(27) 5_555 . 1_555 N
C1 C1 C2 64.73(22) 5_555 . 5_555 N
C1 C1 H3 99.1(7) 5_555 . 1_555 N
C1 C1 H3 53.5(6) 5_555 . 5_555 N
C1 C1 N7 76.65(23) 5_555 . 1_555 N
C2 C1 H3 119.3(8) 1_555 . 1_555 N
C2 C1 H3 114.5(7) 1_555 . 5_555 N
C2 C1 N7 123.1(4) 1_555 . 1_555 N
C2 C1 H3 120.9(7) 5_555 . 1_555 N
C2 C1 H3 96.3(7) 5_555 . 5_555 N
C2 C1 N7 113.0(4) 5_555 . 1_555 N
H3 C1 H3 45.6(12) 1_555 . 5_555 N
H3 C1 N7 117.5(7) 1_555 . 1_555 N
H3 C1 N7 102.1(6) 5_555 . 1_555 N
C1 C2 C2 88.67(27) 1_555 . 5_555 N
C1 C2 H4 119.3(8) 1_555 . 1_555 N
C1 C2 H4 111.9(7) 1_555 . 5_555 N
C1 C2 C5 117.9(4) 1_555 . 3_565 N
C1 C2 C2 64.73(22) 5_555 . 5_555 N
C1 C2 H4 120.1(7) 5_555 . 1_555 N
C1 C2 H4 94.9(6) 5_555 . 5_555 N
C1 C2 C5 108.9(4) 5_555 . 3_565 N
C2 C2 H4 98.3(7) 5_555 . 1_555 N
C2 C2 H4 51.9(5) 5_555 . 5_555 N
C2 C2 C5 75.89(16) 5_555 . 3_565 N
H4 C2 H4 46.5(12) 1_555 . 5_555 N
H4 C2 C5 122.3(8) 1_555 . 3_565 N
H4 C2 C5 104.3(6) 5_555 . 3_565 N
C2 C5 C2 111.9(5) 3_565 . -1_565 N
C2 C5 C2 119.4(5) 3_565 . -5_565 N
C2 C5 C6 120.28(25) 3_565 . 1_555 N
C2 C5 C2 119.4(5) 7_565 . -1_565 N
C2 C5 C2 111.9(5) 7_565 . -5_565 N
C2 C5 C6 120.28(25) 7_565 . 1_555 N
C2 C5 C6 120.28(25) -1_565 . 1_555 N
C2 C5 C6 120.28(25) -5_565 . 1_555 N
C5 C6 C6 180.0 1_555 . 3_565 N
C1 N7 C1 111.8(5) 1_555 . -3_555 N
C1 N7 C1 118.6(5) 1_555 . -7_555 N
C1 N7 Cu8 120.70(24) 1_555 . 1_555 N
C1 N7 C1 118.6(5) 5_555 . -3_555 N
C1 N7 C1 111.8(5) 5_555 . -7_555 N
C1 N7 Cu8 120.70(24) 5_555 . 1_555 N
C1 N7 Cu8 120.70(24) -3_555 . 1_555 N
C1 N7 Cu8 120.70(24) -7_555 . 1_555 N
N7 Cu8 N7 90.0 1_555 . 2_555 N
N7 Cu8 N7 180.0 1_555 . 3_555 N
N7 Cu8 N7 90.0 1_555 . 4_555 N
N7 Cu8 F10 90.0 1_555 . 1_555 N
N7 Cu8 F10 90.0 1_555 . -1_555 N
N7 Cu8 N7 90.0 2_555 . 3_555 N
N7 Cu8 N7 180.0 2_555 . 4_555 N
N7 Cu8 F10 90.0 2_555 . 1_555 N
N7 Cu8 F10 90.0 2_555 . -1_555 N
N7 Cu8 N7 90.0 3_555 . 4_555 N
N7 Cu8 F10 90.0 3_555 . 1_555 N
N7 Cu8 F10 90.0 3_555 . -1_555 N
N7 Cu8 F10 90.0 4_555 . 1_555 N
N7 Cu8 F10 90.0 4_555 . -1_555 N
F10 Cu8 F10 180.0 1_555 . -1_555 N
F10 Si9 F10 180.0 1_555 . -1_556 N
F10 Si9 F11 90.0 1_555 . 1_555 N
F10 Si9 F11 90.0 1_555 . 2_555 N
F10 Si9 F11 90.0 1_555 . 3_555 N
F10 Si9 F11 90.0 1_555 . 4_555 N
F10 Si9 F11 90.0 -1_556 . 1_555 N
F10 Si9 F11 90.0 -1_556 . 2_555 N
F10 Si9 F11 90.0 -1_556 . 3_555 N
F10 Si9 F11 90.0 -1_556 . 4_555 N
F11 Si9 F11 90.0 1_555 . 2_555 N
F11 Si9 F11 180.0 1_555 . 3_555 N
F11 Si9 F11 90.0 1_555 . 4_555 N
F11 Si9 F11 90.0 2_555 . 3_555 N
F11 Si9 F11 180.0 2_555 . 4_555 N
F11 Si9 F11 90.0 3_555 . 4_555 N
Cu8 F10 Si9 180.0 1_555 . 1_555 N
H C C 180.0 1_555 . -101_555 N

loop_
_atom_type_symbol
_atom_type_number_in_cell
_atom_type_scat_length_neutron
_atom_type_scat_source
C 54.759 0.6646 International_Tables_Vol_C
H 32.0 -0.3739 International_Tables_Vol_C
N 8.0 0.9360 International_Tables_Vol_C
Cu 2.0 0.7718 International_Tables_Vol_C
Si 2.0 0.4149 International_Tables_Vol_C
F 12.0 0.5654 International_Tables_Vol_C
H 6.759 0.6671 International_Tables_Vol_C
_diffrn_radiation_probe          neutron
_diffrn_measurement_device_type  'BT-1 neutron powder diffractometer'
_diffrn_radiation_wavelength     2.0772
_diffrn_ambient_temperature      200
_pd_proc_ls_prof_R_factor        0.0131
_pd_proc_ls_prof_wR_factor       0.0157
_pd_proc_ls_prof_wR_expected     0.0163
_refine_ls_R_Fsqd_factor         0.04611
_exptl_absorpt_correction_T_min  1.00000
_exptl_absorpt_correction_T_max  1.00000
_gsas_exptl_extinct_corr_T_min   1.00000
_gsas_exptl_extinct_corr_T_max   1.00000
_pd_proc_ls_peak_cutoff          0.00500
_pd_proc_info_datetime           2016-03-18T10:11:43
_pd_calc_method                  'Rietveld Refinement'
_pd_meas_2theta_range_min        3.0
_pd_meas_2theta_range_max        166.25
_pd_meas_2theta_range_inc        0.05
_pd_proc_2theta_range_min        2.9983
_pd_proc_2theta_range_max        166.2483
_pd_proc_2theta_range_inc        0.05
_pd_meas_number_of_points        3266
_pd_proc_number_of_points        3266
_refine_ls_shift/su_max          0.02
_refine_ls_shift/su_mean         0.01
_computing_structure_refinement  GSAS
_refine_ls_number_parameters     26
_refine_ls_goodness_of_fit_all   0.97
_refine_ls_number_restraints     7
_refine_ls_matrix_type           full
_reflns_number_total             216
_reflns_limit_h_min              0
_reflns_limit_h_max              13
_reflns_limit_k_min              0
_reflns_limit_k_max              9
_reflns_limit_l_min              0
_reflns_limit_l_max              7
_reflns_d_resolution_high        1.067
_reflns_d_resolution_low         9.698
#--eof--eof--eof--eof--eof--eof--eof--eof--eof--eof--eof--eof--eof--eof--eof--#
_chemical_name_systematic        Cu(4,4?-bipyridylacetylene)2SiF6?C2D2
_chemical_name_common            SIFSIX-2-Cu-i?C2D2
